891, 0, 0, 35, 2
892, 0, 1, 52, 1
893, 0, 2, 74, 3
894, 0, 3, 61, 4
895, 0, 4, 97, 0
896, 1, 0, 50, 4
897, 1, 1, 47, 1
898, 1, 2, 78, 2
899, 1, 3, 86, 0
900, 1, 4, 83, 3
901, 2, 0, 39, 2
902, 2, 1, 49, 3
903, 2, 2, 42, 0
904, 2, 3, 58, 1
905, 2, 4, 65, 4
906, 3, 0, 41, 1
907, 3, 1, 64, 4
908, 3, 2, 42, 2
909, 3, 3, 33, 0
910, 3, 4, 45, 3
